************************************************************************
file with basedata            : j60_50.bas
initial value random generator: 980774204
************************************************************************
projects                      :  1
jobs (incl. supersource/sink ):  62
horizon                       :  326
RESOURCES
  - renewable                 :  4   R
  - nonrenewable              :  0   N
  - doubly constrained        :  0   D
************************************************************************
PROJECT INFORMATION:
pronr.  #jobs rel.date duedate tardcost  MPM-Time
    1     60      0       83       24       83
************************************************************************
PRECEDENCE RELATIONS:
jobnr.    #modes  #successors   successors
   1        1          3           2   3   4
   2        1          3           5   6  19
   3        1          3           9  14  23
   4        1          3           7   8  28
   5        1          2          11  33
   6        1          3          20  23  30
   7        1          2          34  38
   8        1          3           9  12  13
   9        1          3          10  29  48
  10        1          3          15  16  41
  11        1          2          24  38
  12        1          2          24  49
  13        1          2          14  17
  14        1          3          21  25  32
  15        1          3          18  39  53
  16        1          3          22  31  54
  17        1          2          22  32
  18        1          3          22  33  34
  19        1          3          25  26  52
  20        1          2          37  52
  21        1          2          29  36
  22        1          1          30
  23        1          1          28
  24        1          3          39  43  54
  25        1          3          27  31  44
  26        1          3          36  37  41
  27        1          3          33  41  48
  28        1          3          29  31  35
  29        1          3          39  46  52
  30        1          3          35  40  57
  31        1          1          42
  32        1          3          36  37  40
  33        1          2          35  38
  34        1          2          44  57
  35        1          2          46  49
  36        1          3          42  47  48
  37        1          3          42  43  45
  38        1          1          61
  39        1          2          50  56
  40        1          3          43  44  51
  41        1          3          47  50  51
  42        1          2          46  51
  43        1          1          55
  44        1          3          49  50  61
  45        1          2          47  58
  46        1          1          61
  47        1          2          53  54
  48        1          1          56
  49        1          1          58
  50        1          1          58
  51        1          2          56  59
  52        1          1          53
  53        1          2          55  57
  54        1          1          55
  55        1          2          59  60
  56        1          1          60
  57        1          1          59
  58        1          1          60
  59        1          1          62
  60        1          1          62
  61        1          1          62
  62        1          0        
************************************************************************
REQUESTS/DURATIONS:
jobnr. mode duration  R 1  R 2  R 3  R 4
------------------------------------------------------------------------
  1      1     0       0    0    0    0
  2      1     4       8    0    0    0
  3      1     1       0    2    0    0
  4      1     9       7    0    0    0
  5      1     2       0    0    0    5
  6      1     5       0    0    3    0
  7      1     5      10    0    0    0
  8      1     3       9    0    0    0
  9      1     3       6    0    0    0
 10      1     5       0    0    4    0
 11      1     5       0    0    3    0
 12      1     8       8    0    0    0
 13      1     2       0   10    0    0
 14      1     7       0    0    0   10
 15      1     7       1    0    0    0
 16      1     9       9    0    0    0
 17      1     3       3    0    0    0
 18      1    10       0    5    0    0
 19      1     9       0    5    0    0
 20      1     4       0    5    0    0
 21      1    10       0    6    0    0
 22      1     9       0    0    0    4
 23      1    10       0    0    0    6
 24      1     6       2    0    0    0
 25      1     5       0    0    0    1
 26      1    10       0    8    0    0
 27      1    10       0    0    5    0
 28      1     2       9    0    0    0
 29      1     5       0    0    9    0
 30      1    10       0   10    0    0
 31      1     1       0    7    0    0
 32      1     8       0    0    0    9
 33      1     6       0    0    0    2
 34      1     5       4    0    0    0
 35      1     3       0    0    0    4
 36      1     3       3    0    0    0
 37      1     3       0   10    0    0
 38      1     3       1    0    0    0
 39      1     5       0    0    5    0
 40      1     1       0    0    4    0
 41      1     6       1    0    0    0
 42      1     4       0    3    0    0
 43      1     6       9    0    0    0
 44      1     1       0    0    3    0
 45      1     8       0    4    0    0
 46      1     3       0   10    0    0
 47      1     6      10    0    0    0
 48      1     5       0    0    0    6
 49      1     7       0    5    0    0
 50      1     9       0    9    0    0
 51      1     1      10    0    0    0
 52      1     7       5    0    0    0
 53      1    10       0   10    0    0
 54      1     1       0    0    6    0
 55      1     3       0    0    5    0
 56      1     7       0   10    0    0
 57      1     7       4    0    0    0
 58      1    10       0    0    0    3
 59      1     1       0    1    0    0
 60      1     6       0    7    0    0
 61      1     2      10    0    0    0
 62      1     0       0    0    0    0
************************************************************************
RESOURCEAVAILABILITIES:
  R 1  R 2  R 3  R 4
   17   22   12   13
************************************************************************
Job	#risk	Type	VL	mu	sigma	Type	VL	mu	sigma
6	2	3	0.2	3.75	0.75	7	0.1	8.75	0.875
11	2	5	0.2	6.25	1.25	6	0.1	7.5	0.75
18	1	7	0.1	8.75	0.875
21	2	2	0.1	2.5	0.25	5	0.2	6.25	1.25
23	1	6	0.05	7.5	0.375
26	1	7	0.2	8.75	1.75
29	2	2	0.05	2.5	0.125	4	0.1	5	0.5
30	1	7	0.2	8.75	1.75
39	1	5	0.1	6.25	0.625
42	2	1	0.2	1.25	0.25	5	0.05	6.25	0.3125
43	2	4	0.05	5	0.25	5	0.05	6.25	0.3125
45	1	3	0.1	3.75	0.375
46	2	2	0.1	2.5	0.25	6	0.2	7.5	1.5
47	2	2	0.1	2.5	0.25	3	0.05	3.75	0.1875
50	1	6	0.1	7.5	0.75
51	2	1	0.1	1.25	0.125	2	0.2	2.5	0.5
57	2	3	0.2	3.75	0.75	4	0.2	5	1
61	1	8	0.05	10	0.5
